
Gurobi 11.0.1 (win64) logging started Wed Mar 13 20:00:58 2024

Set parameter LogFile to value "C:\Projetos\Job_Rotation_Algorithms\Outputs\GurobiLogs\gurobi_log-output-42_ros-c10-CostaMirallesModel-NoExtraConstraint-2.log"
Gurobi Optimizer version 11.0.1 build v11.0.1rc0 (win64 - Windows 10.0 (19045.2))

CPU model: 11th Gen Intel(R) Core(TM) i7-1165G7 @ 2.80GHz, instruction set [SSE2|AVX|AVX2|AVX512]
Thread count: 4 physical cores, 8 logical processors, using up to 1 threads


Gurobi 11.0.1 (win64) logging started Thu Mar 14 07:59:15 2024

Set parameter LogFile to value "C:\Projetos\Job_Rotation_Algorithms\Outputs\GurobiLogs\gurobi_log-output-42_ros-c10-CostaMirallesModel-NoExtraConstraint-2.log"
Gurobi Optimizer version 11.0.1 build v11.0.1rc0 (win64 - Windows 10.0 (19045.2))

CPU model: 11th Gen Intel(R) Core(TM) i7-1165G7 @ 2.80GHz, instruction set [SSE2|AVX|AVX2|AVX512]
Thread count: 4 physical cores, 8 logical processors, using up to 1 threads


Gurobi 11.0.1 (win64) logging started Fri Mar 15 00:36:42 2024

Set parameter LogFile to value "C:\Projetos\Job_Rotation_Algorithms\Outputs\GurobiLogs\gurobi_log-output-42_ros-c10-CostaMirallesModel-NoExtraConstraint-2.log"
Gurobi Optimizer version 11.0.1 build v11.0.1rc0 (win64 - Windows 10.0 (19045.2))

CPU model: 11th Gen Intel(R) Core(TM) i7-1165G7 @ 2.80GHz, instruction set [SSE2|AVX|AVX2|AVX512]
Thread count: 4 physical cores, 8 logical processors, using up to 1 threads


Gurobi 11.0.1 (win64) logging started Fri Mar 15 09:56:32 2024

Set parameter LogFile to value "C:\Projetos\Job_Rotation_Algorithms\Outputs\GurobiLogs\gurobi_log-output-42_ros-c10-CostaMirallesModel-NoExtraConstraint-2.log"
Gurobi Optimizer version 11.0.1 build v11.0.1rc0 (win64 - Windows 10.0 (19045.2))

CPU model: 11th Gen Intel(R) Core(TM) i7-1165G7 @ 2.80GHz, instruction set [SSE2|AVX|AVX2|AVX512]
Thread count: 4 physical cores, 8 logical processors, using up to 1 threads

WLS license 901039 - registered to Bitka Analytics
Optimize a model with 695 rows, 1946 columns and 20174 nonzeros
Model fingerprint: 0xf6bc5d3b
Variable types: 2 continuous, 1944 integer (1944 binary)
Coefficient statistics:
  Matrix range     [1e+00, 3e+01]
  Objective range  [1e+00, 1e+00]
  Bounds range     [1e+00, 2e+01]
  RHS range        [1e+00, 2e+01]
Presolve removed 23 rows and 594 columns
Presolve time: 0.11s
Presolved: 672 rows, 1352 columns, 12449 nonzeros
Variable types: 0 continuous, 1352 integer (1329 binary)

Root relaxation: objective 5.000000e+01, 738 iterations, 0.02 seconds (0.02 work units)

    Nodes    |    Current Node    |     Objective Bounds      |     Work
 Expl Unexpl |  Obj  Depth IntInf | Incumbent    BestBd   Gap | It/Node Time

     0     0   50.00000    0   28          -   50.00000      -     -    1s
     0     0   50.00000    0  187          -   50.00000      -     -    1s
     0     0   50.00000    0  181          -   50.00000      -     -    1s
     0     0   50.00000    0  177          -   50.00000      -     -    1s
     0     0   50.00000    0  177          -   50.00000      -     -    1s
     0     0   50.00000    0  175          -   50.00000      -     -    1s
     0     0   50.00000    0  174          -   50.00000      -     -    1s
     0     0   50.00000    0   69          -   50.00000      -     -    1s
     0     0   50.00000    0   83          -   50.00000      -     -    1s
     0     0   50.00000    0   83          -   50.00000      -     -    1s
     0     0   50.00000    0   82          -   50.00000      -     -    1s
     0     0   50.00000    0   96          -   50.00000      -     -    1s
     0     0   50.00000    0   83          -   50.00000      -     -    1s
     0     0   50.00000    0   55          -   50.00000      -     -    1s
     0     0   50.00000    0   49          -   50.00000      -     -    1s
     0     2   50.00000    0   48          -   50.00000      -     -    2s
   960   270   50.00000   10  105          -   50.00000      -  68.5    5s
  1282   335   50.00000   23  120          -   50.00000      -  19.3   10s
  2253   160   50.00000   32   84          -   50.00000      -  36.9   15s
  4463   497 infeasible   24               -   50.00000      -  42.6   20s
  6417   559 infeasible   32               -   50.00000      -  46.5   25s
  8294   614 infeasible   34               -   50.00000      -  51.0   30s
 10202   791   50.00000   45  100          -   50.00000      -  52.8   40s
 11672   840 infeasible   38               -   50.00000      -  53.2   45s
 14045   986   50.00000   37   75          -   50.00000      -  52.0   50s
 17193  1110 infeasible   32               -   50.00000      -  48.8   55s
 18870  1265 infeasible   36               -   50.00000      -  49.3   60s
*20952  1456              34      37.0000000   50.00000  35.1%  48.2   63s
H21179  1462                      40.0000000   50.00000  25.0%  48.2   64s
H21289  1478                      41.0000000   50.00000  22.0%  48.2   64s
 21300  1483   49.00000   35   68   41.00000   50.00000  22.0%  48.2   65s
H21661  1459                      44.0000000   50.00000  13.6%  48.5   66s
H21732  1445                      45.0000000   50.00000  11.1%  48.6   66s
 21922  1449   50.00000   35   84   45.00000   50.00000  11.1%  48.8   70s
 22258  1377 infeasible   32        45.00000   50.00000  11.1%  49.5   75s
 22456  1379   50.00000   27   84   45.00000   50.00000  11.1%  49.9   80s
 22566  1381   50.00000   31   73   45.00000   50.00000  11.1%  50.2   85s
 22732  1392   48.60771   43  104   45.00000   50.00000  11.1%  50.6   90s
 23391  1394 infeasible   28        45.00000   50.00000  11.1%  51.7   95s
 23855  1411   49.00000   33   57   45.00000   50.00000  11.1%  52.6  100s
 24310  1401   50.00000   27  113   45.00000   50.00000  11.1%  53.8  105s
 24543  1395 infeasible   31        45.00000   50.00000  11.1%  54.6  110s
 25092  1412   48.00000   41   70   45.00000   50.00000  11.1%  55.7  115s
 26147  1447 infeasible   44        45.00000   50.00000  11.1%  56.4  120s
 27272  1458   50.00000   28   68   45.00000   50.00000  11.1%  56.3  125s
 27663  1450 infeasible   28        45.00000   50.00000  11.1%  57.0  130s
 29148  1485 infeasible   34        45.00000   50.00000  11.1%  57.5  135s
 30361  1486   50.00000   23  121   45.00000   50.00000  11.1%  57.6  140s
 31201  1527   49.77142   43  113   45.00000   50.00000  11.1%  58.0  145s
 33143  1573 infeasible   54        45.00000   50.00000  11.1%  58.1  150s
 34096  1591   50.00000   29   65   45.00000   50.00000  11.1%  58.4  155s
 34545  1632   50.00000   38  134   45.00000   50.00000  11.1%  58.8  160s
 35108  1637   50.00000   42   99   45.00000   50.00000  11.1%  59.1  165s
 35803  1650 infeasible   38        45.00000   50.00000  11.1%  59.5  170s
 37796  1634   50.00000   41  159   45.00000   50.00000  11.1%  59.2  175s
 39162  1637   50.00000   48  135   45.00000   50.00000  11.1%  59.2  180s
 40171  1657 infeasible   45        45.00000   50.00000  11.1%  59.2  185s
 41734  1657   50.00000   32  121   45.00000   50.00000  11.1%  59.1  190s
 42396  1669   50.00000   36  122   45.00000   50.00000  11.1%  59.6  195s
 43934  1711   50.00000   32  119   45.00000   50.00000  11.1%  59.6  200s
 44968  1759 infeasible   39        45.00000   50.00000  11.1%  59.6  205s
 46813  1719   50.00000   30   83   45.00000   50.00000  11.1%  59.6  210s
 48111  1763   50.00000   31  157   45.00000   50.00000  11.1%  59.8  216s
 49313  1812 infeasible   35        45.00000   50.00000  11.1%  59.8  220s
 50565  1840   50.00000   37   92   45.00000   50.00000  11.1%  60.1  225s
 51730  1859 infeasible   49        45.00000   50.00000  11.1%  60.3  230s
 52857  1854   50.00000   29  157   45.00000   50.00000  11.1%  60.2  235s
 53833  1957 infeasible   40        45.00000   50.00000  11.1%  60.6  240s
 55548  1968   50.00000   40   70   45.00000   50.00000  11.1%  60.6  246s
 56261  1984 infeasible   46        45.00000   50.00000  11.1%  60.9  250s
 58035  2046   50.00000   43  110   45.00000   50.00000  11.1%  61.0  255s
 59512  2092   50.00000   31  130   45.00000   50.00000  11.1%  61.1  261s
 60471  2104   50.00000   26  189   45.00000   50.00000  11.1%  61.3  265s
 61943  2156   50.00000   38  139   45.00000   50.00000  11.1%  61.4  270s
 62777  2206 infeasible   35        45.00000   50.00000  11.1%  61.6  275s
 64234  2206 infeasible   33        45.00000   50.00000  11.1%  61.8  280s
 65146  2206 infeasible   31        45.00000   50.00000  11.1%  62.0  285s
 66159  2205 infeasible   35        45.00000   50.00000  11.1%  62.3  290s
 67927  2205   50.00000   36  107   45.00000   50.00000  11.1%  62.4  295s
 68347  2201 infeasible   31        45.00000   50.00000  11.1%  62.5  300s
 69836  2206 infeasible   33        45.00000   50.00000  11.1%  62.7  305s
 71182  2229   50.00000   40  105   45.00000   50.00000  11.1%  62.8  310s
 72353  2273   46.82039   32  129   45.00000   50.00000  11.1%  62.9  315s
 73142  2240 infeasible   33        45.00000   50.00000  11.1%  63.1  320s
 74719  2267   50.00000   28  181   45.00000   50.00000  11.1%  63.0  325s
 76210  2352   50.00000   41  108   45.00000   50.00000  11.1%  63.0  330s
 77360  2355   50.00000   42   89   45.00000   50.00000  11.1%  63.1  335s
 77706  2332 infeasible   31        45.00000   50.00000  11.1%  63.3  340s
 79350  2363 infeasible   36        45.00000   50.00000  11.1%  63.3  345s
 80803  2367 infeasible   34        45.00000   50.00000  11.1%  63.3  350s
 81511  2358   50.00000   27   71   45.00000   50.00000  11.1%  63.4  355s
 82612  2320   48.44222   39  113   45.00000   50.00000  11.1%  63.4  360s
 84716  2432   50.00000   36  102   45.00000   50.00000  11.1%  63.4  365s
 85557  2436   50.00000   26  135   45.00000   50.00000  11.1%  63.5  370s
H87005  2468                      46.0000000   50.00000  8.70%  63.4  374s
 87434  2514   50.00000   37   79   46.00000   50.00000  8.70%  63.3  375s
 88069  2460 infeasible   35        46.00000   50.00000  8.70%  63.5  380s
 88663  2448   50.00000   30  139   46.00000   50.00000  8.70%  63.6  385s
 90133  2457   50.00000   37  136   46.00000   50.00000  8.70%  63.8  390s
 90803  2397 infeasible   47        46.00000   50.00000  8.70%  64.0  395s
 92345  2344   50.00000   29  104   46.00000   50.00000  8.70%  64.0  400s
 93435  2263 infeasible   30        46.00000   50.00000  8.70%  64.1  405s
 94448  2204 infeasible   26        46.00000   50.00000  8.70%  64.2  410s
 95862  2193   50.00000   36   72   46.00000   50.00000  8.70%  64.2  415s
 97225  2171   50.00000   35   74   46.00000   50.00000  8.70%  64.3  420s
 98216  2129   50.00000   30  136   46.00000   50.00000  8.70%  64.3  425s
 99308  2121   50.00000   34   97   46.00000   50.00000  8.70%  64.4  430s
 99548  2111   50.00000   31   90   46.00000   50.00000  8.70%  64.5  435s
 101014  2131 infeasible   39        46.00000   50.00000  8.70%  64.4  440s
 102303  2125   50.00000   26  111   46.00000   50.00000  8.70%  64.5  445s
 102952  2111   50.00000   33   99   46.00000   50.00000  8.70%  64.6  450s
 104679  2134   50.00000   41   76   46.00000   50.00000  8.70%  64.6  455s
 106001  2134 infeasible   44        46.00000   50.00000  8.70%  64.7  460s
 106682  2121   50.00000   28  100   46.00000   50.00000  8.70%  64.7  465s
 108014  2133   50.00000   28  106   46.00000   50.00000  8.70%  64.9  470s
 109446  2104   50.00000   38  124   46.00000   50.00000  8.70%  64.9  475s
 110640  2106   50.00000   45   84   46.00000   50.00000  8.70%  65.0  480s
 111585  2100   50.00000   36  108   46.00000   50.00000  8.70%  65.0  485s
 113020  2107   50.00000   30  152   46.00000   50.00000  8.70%  65.0  490s
 114048  2098   50.00000   31   75   46.00000   50.00000  8.70%  65.1  495s
 115605  2029   50.00000   44  149   46.00000   50.00000  8.70%  65.2  500s
 116373  1965 infeasible   36        46.00000   50.00000  8.70%  65.4  505s
 117241  1874   50.00000   32  145   46.00000   50.00000  8.70%  65.5  510s
 119121  1518 infeasible   42        46.00000   49.85638  8.38%  65.5  515s
 122147   911   49.00000   43   81   46.00000   49.00000  6.52%  65.0  520s
 125174   248 infeasible   31        46.00000   48.00000  4.35%  64.5  525s

Cutting planes:
  Cover: 40
  Clique: 58
  MIR: 1
  Flow cover: 21
  GUB cover: 2
  Zero half: 1
  RLT: 7
  Relax-and-lift: 1
  BQP: 1

Explored 125765 nodes (8196332 simplex iterations) in 525.93 seconds (529.09 work units)
Thread count was 1 (of 8 available processors)

Solution count 6: 46 45 44 ... 37

Optimal solution found (tolerance 1.00e-03)
Best objective 4.600000000000e+01, best bound 4.600000000000e+01, gap 0.0000%
